letting grid be [
[ 1, 2, 2,  3, 4, 4,  5, 5, 5],
[ 1, 6, 6,  3, 4, 4,  7, 7, 8],
[ 1, 9, 6,  3,10,10, 11, 7, 8],

[ 9, 9,12, 12,13,11, 11,14,14],
[15,15,12, 13,13,16, 16,17,17],
[15,18,18, 19,19,20, 21,21,22],

[23,23,24, 19,20,20, 25,25,26],
[27,23,24, 28,29,29, 25,25,26],
[27,27,30, 28,31,32, 32,32,26]
]

letting hints be [14,8,14,24,11, 15,11,14,21,7, 19,14,18,8,11, 5,13,19,14,12, 14,5,17,11,20, 9,9,9,16,8, 2,22]